89
0 77 52 15 78 2 10 30 8 84 
49 39 12 9 67 29 21 69 73 5 
60 58 51 14 47 46 64 55 31 32 
70 11 79 61 65 45 50 88 71 62 
41 33 44 19 75 83 6 86 74 66 
82 18 26 87 3 59 4 7 54 38 
28 80 48 81 16 43 17 25 1 34 
56 37 20 76 13 23 36 42 72 40 
35 68 24 57 27 85 53 22 63 
